(set-info :Origin "This instance was generated by: BanditFuzz-- an RL fuzzer for SMT solvers" )
(set-info :Author "Joe Scott, Fed Mora, Vijay Ganesh" )
(set-info :Contact "Joe Scott, joseph.scott@uwaterloo.ca")
(set-logic QF_BV)
(declare-const bool_0 Bool)
(declare-const bool_1 Bool)
(declare-const bool_2 Bool)
(declare-const bool_3 Bool)
(declare-const bool_4 Bool)
(declare-const bv_0 (_ BitVec 32))
(declare-const bv_1 (_ BitVec 32))
(declare-const bv_2 (_ BitVec 32))
(declare-const bv_3 (_ BitVec 32))
(declare-const bv_4 (_ BitVec 32))
(assert (xor (bvsle (bvashr bv_3 #x2bbecb65 ) (bvadd #x4e253faf  #x41499f61 )) (not (bvult bv_4 #xfa2f6ce9 ))))
(assert (and (bvuge (bvshl bv_4 #x30d85ebe ) (bvashr #x606326aa  bv_4)) (bvugt (bvnor bv_3 #x2e7995c4 ) (bvurem #xf7537698  #xc5441570 ))))
(assert (bvsgt (bvurem (bvxor #x27f93841  #x9548aff1 ) (bvadd #x5c46a2de  bv_2)) (bvadd (bvlshr bv_0 #x84034bc8 ) (bvadd bv_4 bv_1))))
(assert (bvsgt (bvsmod (bvurem #x1d1be553  #xc376de38 ) (bvnand bv_2 #xe6d208fc )) (bvsdiv (bvsub bv_1 #xb3b35f49 ) (bvashr #xfaf213d0  bv_2))))
(assert (bvsle (bvnor (bvor #xa7fd189f  bv_3) (bvsdiv #xe7020fcb  bv_4)) (bvxor (bvxnor #xd6705ab8  #x5465c23f ) (bvxor #x526c990e  bv_4))))
(check-sat)
(exit)
